(set-info :source |printed by MathSAT|)
(declare-fun param_e06 () Bool)
(declare-fun call__DRAGON_.dirty () Int)
(declare-fun shared () Int)
(declare-fun _OK_ () Bool)
(declare-fun param_e05 () Bool)
(declare-fun call__DRAGON_.ite60 () Int)
(declare-fun call__DRAGON_.ite13 () Int)
(declare-fun call__DRAGON_.ite24 () Int)
(declare-fun call__DRAGON_.ite29 () Int)
(declare-fun call__DRAGON_.ite7 () Int)
(declare-fun call__DRAGON_.ite21 () Int)
(declare-fun call__DRAGON_.ite19 () Int)
(declare-fun call__DRAGON_.ite40 () Int)
(declare-fun call__DRAGON_.flby () Int)
(declare-fun call__DRAGON_.ite6 () Int)
(declare-fun call__DRAGON_.ite52 () Int)
(declare-fun param_e08 () Bool)
(declare-fun call__DRAGON_.ite44 () Int)
(declare-fun param_e11 () Bool)
(declare-fun call__DRAGON_.ite33 () Int)
(declare-fun call__DRAGON_.invalid () Int)
(declare-fun call__DRAGON_.ite28 () Int)
(declare-fun call__DRAGON_.flby3 () Int)
(declare-fun call__DRAGON_.flby5 () Int)
(declare-fun call__DRAGON_.ite16 () Int)
(declare-fun call__DRAGON_.g06 () Bool)
(declare-fun call__DRAGON_.ite31 () Int)
(declare-fun call__DRAGON_.ite10 () Int)
(declare-fun env () Bool)
(declare-fun param_e01 () Bool)
(declare-fun erreur () Bool)
(declare-fun call__DRAGON_.ite9 () Int)
(declare-fun call__DRAGON_.ite () Bool)
(declare-fun call__DRAGON_.ite58 () Int)
(declare-fun call__DRAGON_.flby2 () Int)
(declare-fun param_e07 () Bool)
(declare-fun call__DRAGON_.ite8 () Int)
(declare-fun param_e09 () Bool)
(declare-fun call__DRAGON_.ite56 () Int)
(declare-fun call__DRAGON_.erreur () Bool)
(declare-fun call__DRAGON_.ite35 () Int)
(declare-fun invalid () Int)
(declare-fun param_e02 () Bool)
(declare-fun call__DRAGON_.ite37 () Int)
(declare-fun shared_dirty () Int)
(declare-fun call__DRAGON_.ite39 () Int)
(declare-fun call__DRAGON_.ite2 () Int)
(declare-fun call__DRAGON_.ite54 () Int)
(declare-fun call__DRAGON_.ite14 () Int)
(declare-fun call__DRAGON_.ite55 () Int)
(declare-fun call__DRAGON_.ite43 () Int)
(declare-fun call__DRAGON_.ite48 () Int)
(declare-fun call__DRAGON_.g04 () Bool)
(declare-fun call__DRAGON_.flby4 () Int)
(declare-fun call_Sofar.flby () Bool)
(declare-fun call__DRAGON_.ite3 () Int)
(declare-fun call__DRAGON_.ite17 () Int)
(declare-fun call__DRAGON_.shared () Int)
(declare-fun call__DRAGON_.ite53 () Int)
(declare-fun call__DRAGON_.ite5 () Int)
(declare-fun call__DRAGON_.ite41 () Int)
(declare-fun param_e03 () Bool)
(declare-fun call__DRAGON_.g05 () Bool)
(declare-fun param_e12 () Bool)
(declare-fun call__DRAGON_.ite49 () Int)
(declare-fun call_excludes12.excludes () Bool)
(declare-fun call__DRAGON_.ite11 () Int)
(declare-fun call_First.First () Int)
(declare-fun call__DRAGON_.ite26 () Int)
(declare-fun call__DRAGON_.ite18 () Int)
(declare-fun call__DRAGON_.ite59 () Int)
(declare-fun call__DRAGON_.ite46 () Int)
(declare-fun call__DRAGON_.mem_init () Int)
(declare-fun call__DRAGON_.flby6 () Int)
(declare-fun call__DRAGON_.ite50 () Int)
(declare-fun call__DRAGON_.ite30 () Int)
(declare-fun call__DRAGON_.ite20 () Int)
(declare-fun call_First.flby () Int)
(declare-fun call__DRAGON_.ite61 () Int)
(declare-fun call__DRAGON_.ite36 () Int)
(declare-fun call__DRAGON_.ite38 () Int)
(declare-fun call__DRAGON_.ite4 () Int)
(declare-fun call__DRAGON_.ite12 () Int)
(declare-fun call_Sofar.Sofar () Bool)
(declare-fun call__DRAGON_.ite27 () Int)
(declare-fun call__DRAGON_.ite25 () Int)
(declare-fun call__DRAGON_.ite15 () Int)
(declare-fun call__DRAGON_.ite42 () Int)
(declare-fun call__DRAGON_.exclusive () Int)
(declare-fun dirty () Int)
(declare-fun call__DRAGON_.ite45 () Int)
(declare-fun call__DRAGON_.ite32 () Int)
(declare-fun call__DRAGON_.ite51 () Int)
(declare-fun param_e04 () Bool)
(declare-fun call__DRAGON_.ite34 () Int)
(declare-fun call__DRAGON_.g08 () Bool)
(declare-fun call__DRAGON_.ite23 () Int)
(declare-fun exclusive () Int)
(declare-fun call__DRAGON_.ite47 () Int)
(declare-fun call__DRAGON_.ite57 () Int)
(declare-fun call__DRAGON_.shared_dirty () Int)
(declare-fun call__DRAGON_.ite22 () Int)
(declare-fun call__DRAGON_.g02 () Bool)
(declare-fun param_init_invalid () Int)
(declare-fun param_e10 () Bool)
(define-fun .def_1781 () Bool (= call_First.flby call_First.First))
(define-fun .def_1779 () Bool (= call_Sofar.flby call_Sofar.Sofar))
(define-fun .def_1588 () Bool (not param_e02))
(define-fun .def_1569 () Bool (not param_e01))
(define-fun .def_1677 () Bool (and .def_1569 .def_1588))
(define-fun .def_1629 () Bool (not param_e03))
(define-fun .def_1678 () Bool (and .def_1629 .def_1677))
(define-fun .def_1645 () Bool (not param_e04))
(define-fun .def_1679 () Bool (and .def_1645 .def_1678))
(define-fun .def_1422 () Bool (not param_e05))
(define-fun .def_1680 () Bool (and .def_1422 .def_1679))
(define-fun .def_1404 () Bool (not param_e06))
(define-fun .def_1681 () Bool (and .def_1404 .def_1680))
(define-fun .def_1439 () Bool (not param_e07))
(define-fun .def_1682 () Bool (and .def_1439 .def_1681))
(define-fun .def_1458 () Bool (not param_e08))
(define-fun .def_1683 () Bool (and .def_1458 .def_1682))
(define-fun .def_1297 () Bool (not param_e09))
(define-fun .def_1684 () Bool (and .def_1297 .def_1683))
(define-fun .def_1303 () Bool (not param_e10))
(define-fun .def_1685 () Bool (and .def_1303 .def_1684))
(define-fun .def_1310 () Bool (not param_e11))
(define-fun .def_1686 () Bool (and .def_1310 .def_1685))
(define-fun .def_1317 () Bool (not param_e12))
(define-fun .def_1764 () Bool (and .def_1317 .def_1686))
(define-fun .def_1753 () Bool (and param_e01 .def_1588))
(define-fun .def_1754 () Bool (and .def_1629 .def_1753))
(define-fun .def_1755 () Bool (and .def_1645 .def_1754))
(define-fun .def_1756 () Bool (and .def_1422 .def_1755))
(define-fun .def_1757 () Bool (and .def_1404 .def_1756))
(define-fun .def_1758 () Bool (and .def_1439 .def_1757))
(define-fun .def_1759 () Bool (and .def_1458 .def_1758))
(define-fun .def_1760 () Bool (and .def_1297 .def_1759))
(define-fun .def_1761 () Bool (and .def_1303 .def_1760))
(define-fun .def_1762 () Bool (and .def_1310 .def_1761))
(define-fun .def_1763 () Bool (and .def_1317 .def_1762))
(define-fun .def_1765 () Bool (or .def_1763 .def_1764))
(define-fun .def_1742 () Bool (and .def_1569 param_e02))
(define-fun .def_1743 () Bool (and .def_1629 .def_1742))
(define-fun .def_1744 () Bool (and .def_1645 .def_1743))
(define-fun .def_1745 () Bool (and .def_1422 .def_1744))
(define-fun .def_1746 () Bool (and .def_1404 .def_1745))
(define-fun .def_1747 () Bool (and .def_1439 .def_1746))
(define-fun .def_1748 () Bool (and .def_1458 .def_1747))
(define-fun .def_1749 () Bool (and .def_1297 .def_1748))
(define-fun .def_1750 () Bool (and .def_1303 .def_1749))
(define-fun .def_1751 () Bool (and .def_1310 .def_1750))
(define-fun .def_1752 () Bool (and .def_1317 .def_1751))
(define-fun .def_1766 () Bool (or .def_1752 .def_1765))
(define-fun .def_1732 () Bool (and param_e03 .def_1677))
(define-fun .def_1733 () Bool (and .def_1645 .def_1732))
(define-fun .def_1734 () Bool (and .def_1422 .def_1733))
(define-fun .def_1735 () Bool (and .def_1404 .def_1734))
(define-fun .def_1736 () Bool (and .def_1439 .def_1735))
(define-fun .def_1737 () Bool (and .def_1458 .def_1736))
(define-fun .def_1738 () Bool (and .def_1297 .def_1737))
(define-fun .def_1739 () Bool (and .def_1303 .def_1738))
(define-fun .def_1740 () Bool (and .def_1310 .def_1739))
(define-fun .def_1741 () Bool (and .def_1317 .def_1740))
(define-fun .def_1767 () Bool (or .def_1741 .def_1766))
(define-fun .def_1723 () Bool (and param_e04 .def_1678))
(define-fun .def_1724 () Bool (and .def_1422 .def_1723))
(define-fun .def_1725 () Bool (and .def_1404 .def_1724))
(define-fun .def_1726 () Bool (and .def_1439 .def_1725))
(define-fun .def_1727 () Bool (and .def_1458 .def_1726))
(define-fun .def_1728 () Bool (and .def_1297 .def_1727))
(define-fun .def_1729 () Bool (and .def_1303 .def_1728))
(define-fun .def_1730 () Bool (and .def_1310 .def_1729))
(define-fun .def_1731 () Bool (and .def_1317 .def_1730))
(define-fun .def_1768 () Bool (or .def_1731 .def_1767))
(define-fun .def_1715 () Bool (and param_e05 .def_1679))
(define-fun .def_1716 () Bool (and .def_1404 .def_1715))
(define-fun .def_1717 () Bool (and .def_1439 .def_1716))
(define-fun .def_1718 () Bool (and .def_1458 .def_1717))
(define-fun .def_1719 () Bool (and .def_1297 .def_1718))
(define-fun .def_1720 () Bool (and .def_1303 .def_1719))
(define-fun .def_1721 () Bool (and .def_1310 .def_1720))
(define-fun .def_1722 () Bool (and .def_1317 .def_1721))
(define-fun .def_1769 () Bool (or .def_1722 .def_1768))
(define-fun .def_1708 () Bool (and param_e06 .def_1680))
(define-fun .def_1709 () Bool (and .def_1439 .def_1708))
(define-fun .def_1710 () Bool (and .def_1458 .def_1709))
(define-fun .def_1711 () Bool (and .def_1297 .def_1710))
(define-fun .def_1712 () Bool (and .def_1303 .def_1711))
(define-fun .def_1713 () Bool (and .def_1310 .def_1712))
(define-fun .def_1714 () Bool (and .def_1317 .def_1713))
(define-fun .def_1770 () Bool (or .def_1714 .def_1769))
(define-fun .def_1702 () Bool (and param_e07 .def_1681))
(define-fun .def_1703 () Bool (and .def_1458 .def_1702))
(define-fun .def_1704 () Bool (and .def_1297 .def_1703))
(define-fun .def_1705 () Bool (and .def_1303 .def_1704))
(define-fun .def_1706 () Bool (and .def_1310 .def_1705))
(define-fun .def_1707 () Bool (and .def_1317 .def_1706))
(define-fun .def_1771 () Bool (or .def_1707 .def_1770))
(define-fun .def_1697 () Bool (and param_e08 .def_1682))
(define-fun .def_1698 () Bool (and .def_1297 .def_1697))
(define-fun .def_1699 () Bool (and .def_1303 .def_1698))
(define-fun .def_1700 () Bool (and .def_1310 .def_1699))
(define-fun .def_1701 () Bool (and .def_1317 .def_1700))
(define-fun .def_1772 () Bool (or .def_1701 .def_1771))
(define-fun .def_1693 () Bool (and param_e09 .def_1683))
(define-fun .def_1694 () Bool (and .def_1303 .def_1693))
(define-fun .def_1695 () Bool (and .def_1310 .def_1694))
(define-fun .def_1696 () Bool (and .def_1317 .def_1695))
(define-fun .def_1773 () Bool (or .def_1696 .def_1772))
(define-fun .def_1690 () Bool (and param_e10 .def_1684))
(define-fun .def_1691 () Bool (and .def_1310 .def_1690))
(define-fun .def_1692 () Bool (and .def_1317 .def_1691))
(define-fun .def_1774 () Bool (or .def_1692 .def_1773))
(define-fun .def_1688 () Bool (and param_e11 .def_1685))
(define-fun .def_1689 () Bool (and .def_1317 .def_1688))
(define-fun .def_1775 () Bool (or .def_1689 .def_1774))
(define-fun .def_1687 () Bool (and param_e12 .def_1686))
(define-fun .def_1776 () Bool (or .def_1687 .def_1775))
(define-fun .def_1777 () Bool (= call_excludes12.excludes .def_1776))
(define-fun .def_1675 () Bool (= call__DRAGON_.mem_init call__DRAGON_.flby))
(define-fun .def_1673 () Bool (= call__DRAGON_.erreur call__DRAGON_.ite))
(define-fun .def_1671 () Bool (= call__DRAGON_.flby6 call__DRAGON_.invalid))
(define-fun .def_1669 () Bool (= call__DRAGON_.flby5 call__DRAGON_.dirty))
(define-fun .def_1667 () Bool (= call__DRAGON_.flby4 call__DRAGON_.shared_dirty))
(define-fun .def_1665 () Bool (= call__DRAGON_.flby3 call__DRAGON_.shared))
(define-fun .def_1662 () Bool (= call__DRAGON_.flby2 call__DRAGON_.exclusive))
(define-fun .def_1657 () Bool (<= 2 call__DRAGON_.exclusive))
(define-fun .def_1659 () Bool (not .def_1657))
(define-fun .def_1660 () Bool (or call__DRAGON_.ite .def_1659))
(define-fun .def_1656 () Bool (not call__DRAGON_.ite))
(define-fun .def_1658 () Bool (or .def_1656 .def_1657))
(define-fun .def_1661 () Bool (and .def_1658 .def_1660))
(define-fun .def_1663 () Bool (and .def_1661 .def_1662))
(define-fun .def_1651 () Bool (= call__DRAGON_.ite29 call__DRAGON_.ite30))
(define-fun .def_1652 () Bool (or param_e04 .def_1651))
(define-fun .def_1648 () Bool (= call__DRAGON_.ite23 call__DRAGON_.ite30))
(define-fun .def_1649 () Bool (or .def_1645 .def_1648))
(define-fun .def_1644 () Bool (= call__DRAGON_.ite43 call__DRAGON_.ite34))
(define-fun .def_1646 () Bool (or .def_1644 .def_1645))
(define-fun .def_1640 () Bool (= call__DRAGON_.ite42 call__DRAGON_.ite43))
(define-fun .def_1642 () Bool (or .def_1640 param_e04))
(define-fun .def_1647 () Bool (and .def_1642 .def_1646))
(define-fun .def_1650 () Bool (and .def_1647 .def_1649))
(define-fun .def_1653 () Bool (and .def_1650 .def_1652))
(define-fun .def_1636 () Bool (= call__DRAGON_.ite8 call__DRAGON_.ite9))
(define-fun .def_1637 () Bool (or param_e03 .def_1636))
(define-fun .def_1633 () Bool (= call__DRAGON_.ite9 call__DRAGON_.ite4))
(define-fun .def_1634 () Bool (or .def_1629 .def_1633))
(define-fun .def_1628 () Bool (= call__DRAGON_.ite44 call__DRAGON_.ite33))
(define-fun .def_1630 () Bool (or .def_1628 .def_1629))
(define-fun .def_1624 () Bool (= call__DRAGON_.ite44 call__DRAGON_.ite43))
(define-fun .def_1626 () Bool (or .def_1624 param_e03))
(define-fun .def_1631 () Bool (and .def_1626 .def_1630))
(define-fun .def_1635 () Bool (and .def_1631 .def_1634))
(define-fun .def_1638 () Bool (and .def_1635 .def_1637))
(define-fun .def_1619 () Bool (= call__DRAGON_.ite31 call__DRAGON_.ite30))
(define-fun .def_1620 () Bool (or param_e02 .def_1619))
(define-fun .def_1615 () Bool (= call__DRAGON_.ite22 call__DRAGON_.ite31))
(define-fun .def_1616 () Bool (or .def_1588 .def_1615))
(define-fun .def_1610 () Bool (= call__DRAGON_.ite20 call__DRAGON_.ite21))
(define-fun .def_1611 () Bool (or param_e02 .def_1610))
(define-fun .def_1607 () Bool (= call__DRAGON_.ite12 call__DRAGON_.ite21))
(define-fun .def_1608 () Bool (or .def_1588 .def_1607))
(define-fun .def_1602 () Bool (= call__DRAGON_.ite10 call__DRAGON_.ite9))
(define-fun .def_1603 () Bool (or param_e02 .def_1602))
(define-fun .def_1598 () Bool (= call__DRAGON_.ite3 call__DRAGON_.ite10))
(define-fun .def_1599 () Bool (or .def_1588 .def_1598))
(define-fun .def_1595 () Bool (= call__DRAGON_.ite59 call__DRAGON_.ite60))
(define-fun .def_1596 () Bool (or param_e02 .def_1595))
(define-fun .def_1592 () Bool (= call__DRAGON_.ite60 call__DRAGON_.ite47))
(define-fun .def_1593 () Bool (or .def_1588 .def_1592))
(define-fun .def_1587 () Bool (= call__DRAGON_.ite32 call__DRAGON_.ite45))
(define-fun .def_1589 () Bool (or .def_1587 .def_1588))
(define-fun .def_1584 () Bool (= call__DRAGON_.ite45 call__DRAGON_.ite44))
(define-fun .def_1586 () Bool (or .def_1584 param_e02))
(define-fun .def_1590 () Bool (and .def_1586 .def_1589))
(define-fun .def_1594 () Bool (and .def_1590 .def_1593))
(define-fun .def_1597 () Bool (and .def_1594 .def_1596))
(define-fun .def_1600 () Bool (and .def_1597 .def_1599))
(define-fun .def_1604 () Bool (and .def_1600 .def_1603))
(define-fun .def_1609 () Bool (and .def_1604 .def_1608))
(define-fun .def_1612 () Bool (and .def_1609 .def_1611))
(define-fun .def_1617 () Bool (and .def_1612 .def_1616))
(define-fun .def_1621 () Bool (and .def_1617 .def_1620))
(define-fun .def_1578 () Bool (= call__DRAGON_.ite11 call__DRAGON_.ite10))
(define-fun .def_1579 () Bool (or param_e01 .def_1578))
(define-fun .def_1574 () Bool (= call__DRAGON_.ite2 call__DRAGON_.ite11))
(define-fun .def_1575 () Bool (or .def_1569 .def_1574))
(define-fun .def_1568 () Bool (= call__DRAGON_.ite61 call__DRAGON_.ite46))
(define-fun .def_1570 () Bool (or .def_1568 .def_1569))
(define-fun .def_1564 () Bool (= call__DRAGON_.ite61 call__DRAGON_.ite60))
(define-fun .def_1566 () Bool (or .def_1564 param_e01))
(define-fun .def_1571 () Bool (and .def_1566 .def_1570))
(define-fun .def_1576 () Bool (and .def_1571 .def_1575))
(define-fun .def_1580 () Bool (and .def_1576 .def_1579))
(define-fun .def_1558 () Bool (= call__DRAGON_.ite55 call__DRAGON_.ite52))
(define-fun .def_1559 () Bool (or .def_1310 .def_1558))
(define-fun .def_1555 () Bool (= call__DRAGON_.ite54 call__DRAGON_.ite55))
(define-fun .def_1556 () Bool (or param_e11 .def_1555))
(define-fun .def_1560 () Bool (and .def_1556 .def_1559))
(define-fun .def_1551 () Bool (= call__DRAGON_.ite56 call__DRAGON_.ite51))
(define-fun .def_1552 () Bool (or .def_1303 .def_1551))
(define-fun .def_1548 () Bool (= call__DRAGON_.ite56 call__DRAGON_.ite55))
(define-fun .def_1549 () Bool (or param_e10 .def_1548))
(define-fun .def_1553 () Bool (and .def_1549 .def_1552))
(define-fun .def_1543 () Bool (= call__DRAGON_.ite57 call__DRAGON_.ite50))
(define-fun .def_1544 () Bool (or .def_1297 .def_1543))
(define-fun .def_1540 () Bool (= call__DRAGON_.ite57 call__DRAGON_.ite56))
(define-fun .def_1541 () Bool (or param_e09 .def_1540))
(define-fun .def_1545 () Bool (and .def_1541 .def_1544))
(define-fun .def_1537 () Bool (= env call_Sofar.Sofar))
(define-fun .def_1534 () Bool (= erreur call__DRAGON_.erreur))
(define-fun .def_1530 () Bool (= invalid call__DRAGON_.invalid))
(define-fun .def_1527 () Bool (= dirty call__DRAGON_.dirty))
(define-fun .def_1524 () Bool (= shared_dirty call__DRAGON_.shared_dirty))
(define-fun .def_1521 () Bool (= shared call__DRAGON_.shared))
(define-fun .def_1518 () Bool (= exclusive call__DRAGON_.exclusive))
(define-fun .def_1507 () Int (* (- 1) call_First.First))
(define-fun .def_1508 () Int (+ invalid .def_1507))
(define-fun .def_1509 () Int (+ dirty .def_1508))
(define-fun .def_1510 () Int (+ shared_dirty .def_1509))
(define-fun .def_1511 () Int (+ shared .def_1510))
(define-fun .def_1512 () Int (+ exclusive .def_1511))
(define-fun .def_1513 () Bool (= .def_1512 0))
(define-fun .def_1490 () Bool (not env))
(define-fun .def_1514 () Bool (or .def_1490 .def_1513))
(define-fun .def_1515 () Bool (= _OK_ .def_1514))
(define-fun .def_1484 () Bool (= call__DRAGON_.ite39 call__DRAGON_.ite40))
(define-fun .def_1485 () Bool (or param_e08 .def_1484))
(define-fun .def_1481 () Bool (= call__DRAGON_.ite37 call__DRAGON_.ite40))
(define-fun .def_1482 () Bool (or .def_1458 .def_1481))
(define-fun .def_1478 () Bool (= call__DRAGON_.ite27 call__DRAGON_.ite28))
(define-fun .def_1479 () Bool (or param_e08 .def_1478))
(define-fun .def_1475 () Bool (= call__DRAGON_.ite25 call__DRAGON_.ite28))
(define-fun .def_1476 () Bool (or .def_1458 .def_1475))
(define-fun .def_1472 () Bool (= call__DRAGON_.ite17 call__DRAGON_.ite18))
(define-fun .def_1473 () Bool (or param_e08 .def_1472))
(define-fun .def_1469 () Bool (= call__DRAGON_.ite18 call__DRAGON_.ite15))
(define-fun .def_1470 () Bool (or .def_1458 .def_1469))
(define-fun .def_1465 () Bool (= call__DRAGON_.ite7 call__DRAGON_.ite8))
(define-fun .def_1466 () Bool (or param_e08 .def_1465))
(define-fun .def_1462 () Bool (= call__DRAGON_.ite5 call__DRAGON_.ite8))
(define-fun .def_1463 () Bool (or .def_1458 .def_1462))
(define-fun .def_1457 () Bool (= call__DRAGON_.ite58 call__DRAGON_.ite49))
(define-fun .def_1459 () Bool (or .def_1457 .def_1458))
(define-fun .def_1453 () Bool (= call__DRAGON_.ite58 call__DRAGON_.ite57))
(define-fun .def_1455 () Bool (or .def_1453 param_e08))
(define-fun .def_1460 () Bool (and .def_1455 .def_1459))
(define-fun .def_1464 () Bool (and .def_1460 .def_1463))
(define-fun .def_1467 () Bool (and .def_1464 .def_1466))
(define-fun .def_1471 () Bool (and .def_1467 .def_1470))
(define-fun .def_1474 () Bool (and .def_1471 .def_1473))
(define-fun .def_1477 () Bool (and .def_1474 .def_1476))
(define-fun .def_1480 () Bool (and .def_1477 .def_1479))
(define-fun .def_1483 () Bool (and .def_1480 .def_1482))
(define-fun .def_1486 () Bool (and .def_1483 .def_1485))
(define-fun .def_1448 () Bool (= call__DRAGON_.ite59 call__DRAGON_.ite58))
(define-fun .def_1449 () Bool (or param_e07 .def_1448))
(define-fun .def_1444 () Bool (= call__DRAGON_.ite48 call__DRAGON_.ite59))
(define-fun .def_1445 () Bool (or .def_1439 .def_1444))
(define-fun .def_1438 () Bool (= call__DRAGON_.ite41 call__DRAGON_.ite36))
(define-fun .def_1440 () Bool (or .def_1438 .def_1439))
(define-fun .def_1434 () Bool (= call__DRAGON_.ite41 call__DRAGON_.ite40))
(define-fun .def_1436 () Bool (or .def_1434 param_e07))
(define-fun .def_1441 () Bool (and .def_1436 .def_1440))
(define-fun .def_1446 () Bool (and .def_1441 .def_1445))
(define-fun .def_1450 () Bool (and .def_1446 .def_1449))
(define-fun .def_1429 () Bool (= call__DRAGON_.ite19 call__DRAGON_.ite20))
(define-fun .def_1430 () Bool (or param_e05 .def_1429))
(define-fun .def_1426 () Bool (= call__DRAGON_.ite13 call__DRAGON_.ite20))
(define-fun .def_1427 () Bool (or .def_1422 .def_1426))
(define-fun .def_1421 () Bool (= call__DRAGON_.ite42 call__DRAGON_.ite35))
(define-fun .def_1423 () Bool (or .def_1421 .def_1422))
(define-fun .def_1417 () Bool (= call__DRAGON_.ite41 call__DRAGON_.ite42))
(define-fun .def_1419 () Bool (or .def_1417 param_e05))
(define-fun .def_1424 () Bool (and .def_1419 .def_1423))
(define-fun .def_1428 () Bool (and .def_1424 .def_1427))
(define-fun .def_1431 () Bool (and .def_1428 .def_1430))
(define-fun .def_1412 () Bool (= call__DRAGON_.ite29 call__DRAGON_.ite28))
(define-fun .def_1413 () Bool (or param_e06 .def_1412))
(define-fun .def_1408 () Bool (= call__DRAGON_.ite24 call__DRAGON_.ite29))
(define-fun .def_1409 () Bool (or .def_1404 .def_1408))
(define-fun .def_1403 () Bool (= call__DRAGON_.ite19 call__DRAGON_.ite14))
(define-fun .def_1405 () Bool (or .def_1403 .def_1404))
(define-fun .def_1399 () Bool (= call__DRAGON_.ite19 call__DRAGON_.ite18))
(define-fun .def_1401 () Bool (or .def_1399 param_e06))
(define-fun .def_1406 () Bool (and .def_1401 .def_1405))
(define-fun .def_1410 () Bool (and .def_1406 .def_1409))
(define-fun .def_1414 () Bool (and .def_1410 .def_1413))
(define-fun .def_1432 () Bool (and .def_1414 .def_1431))
(define-fun .def_1451 () Bool (and .def_1432 .def_1450))
(define-fun .def_1487 () Bool (and .def_1451 .def_1486))
(define-fun .def_1516 () Bool (and .def_1487 .def_1515))
(define-fun .def_1519 () Bool (and .def_1516 .def_1518))
(define-fun .def_1522 () Bool (and .def_1519 .def_1521))
(define-fun .def_1525 () Bool (and .def_1522 .def_1524))
(define-fun .def_1528 () Bool (and .def_1525 .def_1527))
(define-fun .def_1531 () Bool (and .def_1528 .def_1530))
(define-fun .def_1535 () Bool (and .def_1531 .def_1534))
(define-fun .def_1538 () Bool (and .def_1535 .def_1537))
(define-fun .def_1546 () Bool (and .def_1538 .def_1545))
(define-fun .def_1554 () Bool (and .def_1546 .def_1553))
(define-fun .def_1561 () Bool (and .def_1554 .def_1560))
(define-fun .def_1581 () Bool (and .def_1561 .def_1580))
(define-fun .def_1622 () Bool (and .def_1581 .def_1621))
(define-fun .def_1639 () Bool (and .def_1622 .def_1638))
(define-fun .def_1654 () Bool (and .def_1639 .def_1653))
(define-fun .def_1664 () Bool (and .def_1654 .def_1663))
(define-fun .def_1666 () Bool (and .def_1664 .def_1665))
(define-fun .def_1668 () Bool (and .def_1666 .def_1667))
(define-fun .def_1670 () Bool (and .def_1668 .def_1669))
(define-fun .def_1672 () Bool (and .def_1670 .def_1671))
(define-fun .def_1674 () Bool (and .def_1672 .def_1673))
(define-fun .def_1676 () Bool (and .def_1674 .def_1675))
(define-fun .def_1778 () Bool (and .def_1676 .def_1777))
(define-fun .def_1780 () Bool (and .def_1778 .def_1779))
(define-fun .def_1782 () Bool (and .def_1780 .def_1781))
(define-fun .def_1395 () Bool (= param_init_invalid call_First.flby))
(define-fun .def_1387 () Bool (<= param_init_invalid 0))
(define-fun .def_1388 () Bool (not .def_1387))
(define-fun .def_1390 () Bool (and .def_1388 call_excludes12.excludes))
(define-fun .def_1392 () Bool (= .def_1390 call_Sofar.flby))
(define-fun .def_1385 () Bool (= call__DRAGON_.flby4 0))
(define-fun .def_1382 () Bool (= call__DRAGON_.flby3 0))
(define-fun .def_1379 () Bool (= call__DRAGON_.flby2 0))
(define-fun .def_1376 () Bool (= param_init_invalid call__DRAGON_.flby))
(define-fun .def_1370 () Bool (= call__DRAGON_.ite37 0))
(define-fun .def_1363 () Bool (not call__DRAGON_.g08))
(define-fun .def_1371 () Bool (or .def_1363 .def_1370))
(define-fun .def_1366 () Bool (= call__DRAGON_.ite5 0))
(define-fun .def_1367 () Bool (or .def_1363 .def_1366))
(define-fun .def_1361 () Bool (= call__DRAGON_.ite25 1))
(define-fun .def_1364 () Bool (or .def_1361 .def_1363))
(define-fun .def_1368 () Bool (and .def_1364 .def_1367))
(define-fun .def_1372 () Bool (and .def_1368 .def_1371))
(define-fun .def_1357 () Bool (= call__DRAGON_.ite24 1))
(define-fun .def_1355 () Bool (not call__DRAGON_.g06))
(define-fun .def_1358 () Bool (or .def_1355 .def_1357))
(define-fun .def_1351 () Bool (= call__DRAGON_.ite13 0))
(define-fun .def_1349 () Bool (not call__DRAGON_.g05))
(define-fun .def_1352 () Bool (or .def_1349 .def_1351))
(define-fun .def_1345 () Bool (= call__DRAGON_.ite23 0))
(define-fun .def_1343 () Bool (not call__DRAGON_.g04))
(define-fun .def_1346 () Bool (or .def_1343 .def_1345))
(define-fun .def_1338 () Bool (= call__DRAGON_.ite3 0))
(define-fun .def_1335 () Bool (not call__DRAGON_.g02))
(define-fun .def_1339 () Bool (or .def_1335 .def_1338))
(define-fun .def_1333 () Bool (= call__DRAGON_.ite32 0))
(define-fun .def_1336 () Bool (or .def_1333 .def_1335))
(define-fun .def_1340 () Bool (and .def_1336 .def_1339))
(define-fun .def_1330 () Bool (= call__DRAGON_.flby6 call__DRAGON_.mem_init))
(define-fun .def_1326 () Bool (= call__DRAGON_.flby5 0))
(define-fun .def_1321 () Bool (= call__DRAGON_.ite53 call__DRAGON_.ite54))
(define-fun .def_1322 () Bool (or .def_1317 .def_1321))
(define-fun .def_1315 () Bool (= call__DRAGON_.ite6 call__DRAGON_.ite7))
(define-fun .def_1318 () Bool (or .def_1315 .def_1317))
(define-fun .def_1323 () Bool (and .def_1318 .def_1322))
(define-fun .def_1308 () Bool (= call__DRAGON_.ite26 call__DRAGON_.ite27))
(define-fun .def_1311 () Bool (or .def_1308 .def_1310))
(define-fun .def_1301 () Bool (= call__DRAGON_.ite16 call__DRAGON_.ite17))
(define-fun .def_1304 () Bool (or .def_1301 .def_1303))
(define-fun .def_1295 () Bool (= call__DRAGON_.ite38 call__DRAGON_.ite39))
(define-fun .def_1298 () Bool (or .def_1295 .def_1297))
(define-fun .def_1305 () Bool (and .def_1298 .def_1304))
(define-fun .def_1312 () Bool (and .def_1305 .def_1311))
(define-fun .def_1324 () Bool (and .def_1312 .def_1323))
(define-fun .def_1327 () Bool (and .def_1324 .def_1326))
(define-fun .def_1331 () Bool (and .def_1327 .def_1330))
(define-fun .def_1341 () Bool (and .def_1331 .def_1340))
(define-fun .def_1347 () Bool (and .def_1341 .def_1346))
(define-fun .def_1353 () Bool (and .def_1347 .def_1352))
(define-fun .def_1359 () Bool (and .def_1353 .def_1358))
(define-fun .def_1373 () Bool (and .def_1359 .def_1372))
(define-fun .def_1377 () Bool (and .def_1373 .def_1376))
(define-fun .def_1380 () Bool (and .def_1377 .def_1379))
(define-fun .def_1383 () Bool (and .def_1380 .def_1382))
(define-fun .def_1386 () Bool (and .def_1383 .def_1385))
(define-fun .def_1393 () Bool (and .def_1386 .def_1392))
(define-fun .def_1396 () Bool (and .def_1393 .def_1395))
(define-fun .def_1783 () Bool (and .def_1396 .def_1782))
(assert .def_1783)
